COLUMNS

passenger_count
pickup_ID
dropoff_ID
request_time_sec
pickup_district
dropoff_district
LDuals
IDuals
vehicle_ID
pick_position
drop_position

REQUESTS_INFO
3      434       189       28856     52        286       154       154       37        1         2         
2      372       413       28883     119       52        174       174       55        1         2         
1      415       499       28875     100       52        140       140       156       1         2         
1      1376      1376      28852     129       129       151       151       162       1         2         
1      633       609       28879     189       189       119       119       368       1         2         
1      701       894       28870     290       291       118       118       394       1         2         
1      1319      1217      28821     129       84        160       160       449       1         2         
3      1004      824       28881     291       291       147       147       469       1         2         
1      328       578       28867     299       189       143       143       558       1         2         
1      1079      1306      28879     84        129       122       122       569       1         2         
2      347       271       28866     299       127       163       163       637       1         2         
2      395       604       28879     100       189       142       142       657       1         2         
1      345       501       28888     299       52        83        83        780       1         3         
2      771       620       28890     290       131       0         0         0         0         0         
1      963       969       28890     50        290       0         0         0         0         0         
2      499       458       28890     52        52        0         0         0         0         0         
1      398       642       28892     168       131       0         0         0         0         0         
1      458       579       28892     52        189       0         0         0         0         0         
2      389       418       28892     299       168       0         0         0         0         0         
3      645       527       28893     280       52        0         0         0         0         0         
2      645       527       28893     280       52        0         0         0         0         0         
1      905       727       28893     290       290       0         0         0         0         0         
1      175       464       28894     266       168       0         0         0         0         0         
2      576       456       28895     189       52        0         0         0         0         0         
2      35        259       28895     98        87        0         0         0         0         0         
2      824       1308      28895     291       129       0         0         0         0         0         
1      556       600       28896     199       280       0         0         0         0         0         
1      348       435       28897     299       52        0         0         0         0         0         
1      849       960       28897     291       291       0         0         0         0         0         
1      969       501       28897     290       52        0         0         0         0         0         
2      62        669       28900     98        280       0         0         0         0         0         
3      598       477       28900     189       52        0         0         0         0         0         
3      598       477       28900     189       52        0         0         0         0         0         
1      992       313       28901     290       87        0         0         0         0         0         
3      772       180       28901     290       178       0         0         0         0         0         
3      772       180       28901     290       178       0         0         0         0         0         
1      199       177       28901     178       207       0         0         0         0         0         
1      374       926       28902     119       290       0         0         0         0         0         
2      598       398       28904     189       168       0         0         0         0         0         
3      232       247       28904     266       266       0         0         0         0         0         
3      232       247       28904     266       266       0         0         0         0         0         
1      860       836       28906     290       290       0         0         0         0         0         
1      529       559       28907     189       189       0         0         0         0         0         
1      644       836       28907     131       290       0         0         0         0         0         
1      233       324       28907     206       299       0         0         0         0         0         
2      925       331       28909     290       127       0         0         0         0         0         
1      219       556       28909     87        199       0         0         0         0         0         
2      390       527       28909     52        52        0         0         0         0         0         
1      892       415       28910     291       100       0         0         0         0         0         
2      793       1079      28910     290       84        0         0         0         0         0         
1      925       685       28910     290       999       0         0         0         0         0         
1      78        526       28911     9         52        0         0         0         0         0         
3      287       415       28911     299       100       0         0         0         0         0         
3      287       415       28911     299       100       0         0         0         0         0         
1      632       768       28911     189       290       0         0         0         0         0         
2      1005      756       28913     50        131       0         0         0         0         0         
3      1005      756       28913     50        131       0         0         0         0         0         
1      549       552       28915     52        189       0         0         0         0         0         
1      466       209       28915     199       266       0         0         0         0         0         
1      916       1225      28916     291       192       0         0         0         0         0         
1      524       287       28918     52        299       0         0         0         0         0         
1      837       152       28918     290       9         0         0         0         0         0         
1      699       440       28918     290       168       0         0         0         0         0         
1      350       255       28919     127       87        0         0         0         0         0         
